750
150 150
1 120 979
2 120 940
3 120 921
4 120 171
5 120 985
6 120 797
7 120 624
8 120 64
9 120 884
10 119 107
11 119 65
12 119 796
13 119 993
14 119 378
15 119 384
16 119 937
17 118 159
18 118 898
19 118 239
20 118 295
21 118 336
22 118 303
23 118 751
24 118 831
25 117 432
26 117 78
27 117 431
28 117 921
29 117 666
30 117 658
31 117 521
32 117 508
33 116 450
34 116 772
35 116 87
36 116 998
37 116 789
38 116 744
39 115 653
40 115 387
41 115 410
42 115 167
43 115 504
44 115 369
45 115 629
46 115 770
47 115 244
48 115 893
49 114 396
50 114 394
51 114 855
52 114 90
53 114 370
54 114 205
55 114 53
56 114 558
57 113 622
58 113 638
59 113 282
60 113 343
61 113 450
62 113 985
63 113 516
64 113 658
65 112 327
66 112 418
67 112 757
68 112 224
69 112 1000
70 112 962
71 112 1
72 112 213
73 111 450
74 111 19
75 111 917
76 111 322
77 111 79
78 111 970
79 110 5
80 110 280
81 110 45
82 110 701
83 110 658
84 110 724
85 110 973
86 110 195
87 109 930
88 109 193
89 109 617
90 108 153
91 108 317
92 108 876
93 108 885
94 108 618
95 108 729
96 108 287
97 108 245
98 108 223
99 108 304
100 108 40
101 107 291
102 107 295
103 107 706
104 106 568
105 106 420
106 106 317
107 106 893
108 106 75
109 106 686
110 106 845
111 106 892
112 105 840
113 105 469
114 105 326
115 105 791
116 105 346
117 105 697
118 105 363
119 105 965
120 104 971
121 104 378
122 104 345
123 104 373
124 104 435
125 104 172
126 104 848
127 103 259
128 103 392
129 103 365
130 103 591
131 103 893
132 103 693
133 103 263
134 103 198
135 103 293
136 102 151
137 102 127
138 102 964
139 102 402
140 102 576
141 101 629
142 101 257
143 101 576
144 101 717
145 101 784
146 101 877
147 101 65
148 101 724
149 101 202
150 100 604
151 100 190
152 100 788
153 100 895
154 100 540
155 100 393
156 100 93
157 100 271
158 100 494
159 100 730
160 99 807
161 99 891
162 99 391
163 99 557
164 98 462
165 98 797
166 98 913
167 98 511
168 98 200
169 98 403
170 98 969
171 98 814
172 98 841
173 97 98
174 97 115
175 97 448
176 97 942
177 97 325
178 96 195
179 96 725
180 96 52
181 96 58
182 96 189
183 96 672
184 96 382
185 95 741
186 95 48
187 95 650
188 95 924
189 94 387
190 94 785
191 94 927
192 94 116
193 94 697
194 94 942
195 94 169
196 94 821
197 93 205
198 93 288
199 93 796
200 93 137
201 93 732
202 93 691
203 93 629
204 93 247
205 93 770
206 93 10
207 92 126
208 92 231
209 92 915
210 92 141
211 92 977
212 92 154
213 92 520
214 91 25
215 91 252
216 91 58
217 91 107
218 91 764
219 91 835
220 91 3
221 91 314
222 90 1
223 90 443
224 90 934
225 90 621
226 90 105
227 90 420
228 90 631
229 90 732
230 90 598
231 90 569
232 90 579
233 89 121
234 89 909
235 89 66
236 88 682
237 88 30
238 88 313
239 88 179
240 88 752
241 88 89
242 88 105
243 88 809
244 88 44
245 87 149
246 87 626
247 87 329
248 86 615
249 86 614
250 86 922
251 86 404
252 85 950
253 85 813
254 85 226
255 85 213
256 85 398
257 85 115
258 85 259
259 85 595
260 84 173
261 84 454
262 84 656
263 84 468
264 84 73
265 84 198
266 84 369
267 84 982
268 83 278
269 83 615
270 83 413
271 83 378
272 83 767
273 83 207
274 83 880
275 82 468
276 82 548
277 82 576
278 82 704
279 82 677
280 82 973
281 81 172
282 81 428
283 81 263
284 81 843
285 81 645
286 81 576
287 81 832
288 81 482
289 81 841
290 81 117
291 81 737
292 80 869
293 80 582
294 80 48
295 80 373
296 80 522
297 80 709
298 80 333
299 80 494
300 79 241
301 79 137
302 79 248
303 79 635
304 79 318
305 78 816
306 78 900
307 78 52
308 78 28
309 78 527
310 78 551
311 78 647
312 78 12
313 78 783
314 78 971
315 77 877
316 77 451
317 77 480
318 77 968
319 77 908
320 77 533
321 76 210
322 76 863
323 76 406
324 75 871
325 75 9
326 75 282
327 75 810
328 75 631
329 74 873
330 74 406
331 74 468
332 74 44
333 74 661
334 74 552
335 73 291
336 73 454
337 73 762
338 73 133
339 73 845
340 73 37
341 73 78
342 72 817
343 72 235
344 72 563
345 72 285
346 72 694
347 72 72
348 72 621
349 72 307
350 71 553
351 71 412
352 71 556
353 71 403
354 71 241
355 71 660
356 70 691
357 70 315
358 70 298
359 70 443
360 70 577
361 70 268
362 70 921
363 70 728
364 69 287
365 69 615
366 69 213
367 69 255
368 69 893
369 69 848
370 69 914
371 68 622
372 68 553
373 68 321
374 68 40
375 68 71
376 68 703
377 68 561
378 68 981
379 68 882
380 68 924
381 68 226
382 67 936
383 67 116
384 67 90
385 67 389
386 67 860
387 67 809
388 66 866
389 66 562
390 66 559
391 66 739
392 66 190
393 66 185
394 66 966
395 65 417
396 65 633
397 65 398
398 65 573
399 65 5
400 64 148
401 64 122
402 64 499
403 64 999
404 64 139
405 64 992
406 64 97
407 64 796
408 63 548
409 63 533
410 63 309
411 63 349
412 63 215
413 63 130
414 63 6
415 63 604
416 63 861
417 63 783
418 62 2
419 62 505
420 62 994
421 62 653
422 62 356
423 62 815
424 62 886
425 62 599
426 62 353
427 62 354
428 62 604
429 62 314
430 62 525
431 61 342
432 61 724
433 61 331
434 61 458
435 61 348
436 61 768
437 61 134
438 61 632
439 60 375
440 60 870
441 60 121
442 60 178
443 60 980
444 60 901
445 59 443
446 59 339
447 59 604
448 59 941
449 59 97
450 59 483
451 59 910
452 58 360
453 58 544
454 58 243
455 58 779
456 57 610
457 57 675
458 57 265
459 57 798
460 57 732
461 57 670
462 57 407
463 56 228
464 56 923
465 56 833
466 56 533
467 56 705
468 56 445
469 55 666
470 55 954
471 55 747
472 55 444
473 55 44
474 54 615
475 54 439
476 54 835
477 54 464
478 54 363
479 54 457
480 54 257
481 54 399
482 53 412
483 53 775
484 53 666
485 53 619
486 53 846
487 53 39
488 52 491
489 52 277
490 52 69
491 52 245
492 52 469
493 52 487
494 51 229
495 51 926
496 51 589
497 51 202
498 51 877
499 50 782
500 50 48
501 50 448
502 50 107
503 50 474
504 50 674
505 50 106
506 49 949
507 49 656
508 49 174
509 49 938
510 49 132
511 49 483
512 49 32
513 49 869
514 49 254
515 48 573
516 47 82
517 47 964
518 47 912
519 47 993
520 47 888
521 47 425
522 46 292
523 46 945
524 46 656
525 46 753
526 46 61
527 46 6
528 46 871
529 46 970
530 46 288
531 46 210
532 45 221
533 45 810
534 45 921
535 45 175
536 45 131
537 45 467
538 45 913
539 45 709
540 45 320
541 45 37
542 45 38
543 45 760
544 44 295
545 44 50
546 44 875
547 44 629
548 44 155
549 44 212
550 44 862
551 44 617
552 44 763
553 44 911
554 44 817
555 43 484
556 43 115
557 43 143
558 43 30
559 43 250
560 42 950
561 42 364
562 42 146
563 42 211
564 42 552
565 42 422
566 41 213
567 41 646
568 41 229
569 41 237
570 41 412
571 41 333
572 41 228
573 40 133
574 40 538
575 40 112
576 40 336
577 40 960
578 40 818
579 40 306
580 40 392
581 40 999
582 39 455
583 39 241
584 39 369
585 39 154
586 39 327
587 39 619
588 39 992
589 39 172
590 39 187
591 38 437
592 38 369
593 38 620
594 38 348
595 38 692
596 38 286
597 38 81
598 38 250
599 37 610
600 37 591
601 37 226
602 37 640
603 37 557
604 37 916
605 37 14
606 37 805
607 36 41
608 36 961
609 36 649
610 36 277
611 36 287
612 36 96
613 36 300
614 35 600
615 35 36
616 35 267
617 35 122
618 34 400
619 34 595
620 34 182
621 34 611
622 34 904
623 34 868
624 34 639
625 33 513
626 33 253
627 33 142
628 33 926
629 33 919
630 32 279
631 32 684
632 32 371
633 32 344
634 32 745
635 32 452
636 31 218
637 31 116
638 31 290
639 31 586
640 31 783
641 31 747
642 31 699
643 31 274
644 30 603
645 30 754
646 30 169
647 30 182
648 30 831
649 30 831
650 29 633
651 29 615
652 29 787
653 29 577
654 29 54
655 29 883
656 29 609
657 28 684
658 28 292
659 28 419
660 28 135
661 28 851
662 28 283
663 28 633
664 27 16
665 27 223
666 27 35
667 27 926
668 27 877
669 27 688
670 27 768
671 27 363
672 27 951
673 27 492
674 27 434
675 26 289
676 26 949
677 26 426
678 26 954
679 26 503
680 26 943
681 25 528
682 25 63
683 25 771
684 25 58
685 25 145
686 25 350
687 25 383
688 25 670
689 25 754
690 24 968
691 24 672
692 24 599
693 24 539
694 24 139
695 23 224
696 23 322
697 23 767
698 23 156
699 23 243
700 22 535
701 22 557
702 22 124
703 22 323
704 22 264
705 22 530
706 21 137
707 21 195
708 21 449
709 21 513
710 21 416
711 21 855
712 21 708
713 21 986
714 20 771
715 20 91
716 20 459
717 20 954
718 20 408
719 19 79
720 19 47
721 19 915
722 19 77
723 19 453
724 19 246
725 18 757
726 18 114
727 18 884
728 18 540
729 18 908
730 18 462
731 18 50
732 17 23
733 17 608
734 17 368
735 17 129
736 17 385
737 17 710
738 16 913
739 16 347
740 16 843
741 16 529
742 16 812
743 16 822
744 16 642
745 15 103
746 15 953
747 15 25
748 15 914
749 15 105
750 15 520
